robust/generate/spp_dkp_Lefebvre_et_al_2026/src/shortest_path_9_9.kp
51
247

[2.88 0.19 1.46 2.74 1.21 4.04 0.67 1.65 2.51 2.08 0.74 0.93 2.75 1.06 1.75 0.2 1.38 1.24 1.9 0.26 3.21 3.1 2.41 3.04 2.48 2.72 3.39 3.7 1.49 1.31 2.57 1.58 3.68 3.03 1.8 3.74 0.08 1.95 0.72 3.59 0.53 3.16 3.61 0.74 1.16 3.92 2.77 1.35 1.77 0.7 0.84 0.84 3.63 2.93 0.44 1.39 2.47 0.05]

[6 63 43 43 45 77 26 13 27 46 96 10 16 62 98 76 56 39 61 83 58 4 54 84 27 8 43 51 39 88 67 73 52 31 63 47 52 19 93 2 44 78 50 56 63 21 49 9 31 14 43 27 41 81 62 4 48 63]
